s td 14 37 50
b 1 1 2 3 4 5 7 9 10 12 13 14 15 16 17 18 19 21 22 23 26 27 28 31 32 36 37 38 40 41 42 43 44 45 46 47 49 50
b 2 1 2 3 4 7 9 10 12 13 14 15 16 17 18 19 21 22 23 26 28 31 35 36 37 38 40 41 42 43 44 45 46 47 49
b 3 1 2 3 4 6 7 10 12 13 14 15 16 17 18 19 21 22 23 26 28 31 35 36 37 38 40 41 42 43 44 45 46 47 49
b 4 1 2 3 4 6 7 10 12 13 14 15 16 17 18 19 22 23 28 31 33 35 37 38 40 41 42 43 44 46
b 5 2 3 4 6 11 12 13 14 15 16 17 18 19 22 23 28 33 35 37 38 40 41 42 43 44 46
b 6 1 2 3 5 7 9 10 12 13 14 15 16 17 18 19 21 22 23 24 26 27 28 31 32 36 37 38 40 41 42 43 44 45 46 47 49 50
b 7 1 2 3 5 7 9 10 12 14 15 16 17 18 19 20 21 22 23 24 26 27 28 31 32 36 37 38 40 41 42 43 44 46 47 49 50
b 8 1 2 3 5 7 8 9 10 12 14 16 17 19 20 22 23 24 26 27 28 31 32 36 40 41 42 43 44 46 47 49 50
b 9 1 2 3 5 8 9 10 12 14 16 17 23 24 26 27 30 31 32 41 43 44 47 49
b 10 1 2 3 5 7 9 10 12 13 14 15 16 17 18 19 21 22 23 24 25 26 27 28 31 32 36 37 38 40 41 43 44 45 46 49 50
b 11 1 2 5 7 9 10 13 14 16 17 19 21 22 23 24 25 26 27 28 31 36 38 39 40 41 44 45 50
b 12 2 7 9 10 14 16 17 19 21 22 24 25 26 27 28 34 38 39 40 41 45 50
b 13 1 2 3 5 7 10 14 18 21 23 25 27 32 36 37 38 40 43 45 46 48 49
b 14 3 10 12 16 18 21 22 23 27 28 29 31 32 36 40 42 46 47 49 50
1 2
1 6
1 14
2 3
3 4
4 5
6 7
6 10
7 8
8 9
10 11
10 13
11 12
